p tw 50 320
1 5
1 6
1 7
1 11
1 15
1 17
1 21
1 23
1 29
1 30
1 38
1 42
1 47
1 48
2 4
2 5
2 7
2 9
2 11
2 19
2 20
2 24
2 25
2 26
2 27
2 29
2 37
2 40
2 42
2 44
2 45
3 5
3 12
3 14
3 18
3 20
3 23
3 25
3 35
3 37
3 38
3 39
3 42
3 43
3 48
4 10
4 11
4 14
4 15
4 17
4 21
4 26
4 28
4 30
4 31
4 35
4 44
5 13
5 15
5 16
5 30
5 31
5 34
5 39
5 41
5 43
5 45
6 7
6 15
6 17
6 22
6 23
6 29
6 30
6 43
6 45
6 47
6 48
7 8
7 9
7 13
7 24
7 30
7 31
7 33
7 40
7 43
7 49
7 50
8 15
8 35
8 38
8 43
8 46
8 47
8 48
8 50
9 21
9 23
9 24
9 27
9 30
9 32
9 35
9 37
9 38
9 41
9 42
9 44
9 47
9 48
9 49
10 11
10 20
10 27
10 32
10 38
10 42
10 44
10 45
10 46
10 48
11 14
11 16
11 17
11 18
11 19
11 20
11 26
11 28
11 36
11 37
11 38
11 39
11 40
11 47
11 48
11 49
12 13
12 16
12 17
12 24
12 25
12 29
12 34
12 37
12 42
12 45
12 49
13 15
13 20
13 23
13 24
13 25
13 26
13 29
13 35
13 39
13 42
13 45
13 50
14 27
14 28
14 41
14 42
14 48
14 49
15 26
15 28
15 29
15 32
15 37
15 42
15 43
15 46
16 17
16 18
16 22
16 26
16 27
16 28
16 31
16 37
16 38
16 39
16 40
16 41
16 42
16 45
16 47
16 49
17 20
17 23
17 31
17 33
17 34
17 38
17 41
17 44
17 48
17 49
18 21
18 32
18 42
18 43
18 44
18 46
19 28
19 32
19 45
19 46
19 48
19 49
20 23
20 27
20 29
20 31
20 37
20 39
20 40
20 43
21 30
21 49
22 25
22 34
22 40
22 45
22 46
22 49
22 50
23 26
23 29
23 30
23 35
23 48
23 50
24 40
24 43
24 46
24 47
24 49
25 26
25 30
25 35
25 41
25 45
25 46
25 49
25 50
26 29
26 30
26 32
26 38
26 45
26 47
27 30
27 34
27 37
27 45
28 36
28 43
28 45
28 46
29 36
29 37
29 47
29 49
30 35
30 38
30 47
30 48
30 49
31 38
31 40
31 42
31 43
31 47
31 50
32 40
32 41
33 50
34 37
34 45
34 46
34 49
35 41
35 45
35 48
35 50
36 43
36 48
36 49
36 50
37 43
37 45
37 46
37 49
37 50
38 47
38 50
39 40
39 41
39 45
40 42
40 45
40 46
40 50
41 42
41 43
41 45
41 49
43 47
43 48
43 49
44 45
44 46
44 48
45 47
46 49
47 49
